100
32
14
4
19
23
19
25
32
18
5
20
28
21
16
21
30
24
10
14
22
3
18
15
9
23
4
3
19
1
19
2
1
13
8
21
30
5
25
13
20
22
2
14
19
2
23
2
23
22
16
21
4
2
19
28
10
12
9
12
4
12
4
25
32
14
25
6
26
11
19
27
17
16
7
11
17
3
16
2
1
4
16
4
29
3
27
4
20
13
13
25
2
1
12
10
14
13
15
7
13
10